n=15;
t=15;
profit=[3  9  10  6  7  8  1  4  5  2  3  3  1  7  4];
length=[11  2  5  12  6  5  3  3  8  1  11  12  14  10  2];
min_deliver=[5  3  5  2  3  10  4  1  3  9  9  10  8  5  3];
max_deliver=[13  15  14  14  9  14  10  15  8  11  14  14  15  13  5];
surface=[13  5  7  6  13  13  5  2  8  2  9  2  14  5  7];
surface_capacity=15;
